n_nurses =  30;
sched_period =  28;
n_shifts =  3;
nurses_coverage = array2d(period, shifts, [
9, 11, 3,
10, 4, 4,
10, 5, 4,
3, 4, 1,
2, 5, 2,
5, 1, 3,
7, 7, 3,
4, 5, 2,
5, 4, 2,
2, 4, 6,
8, 2, 6,
8, 9, 3,
4, 4, 2,
10, 7, 3,
5, 4, 2,
5, 4, 2,
6, 5, 2,
7, 9, 3,
11, 9, 3,
3, 3, 6,
3, 1, 5,
3, 3, 6,
5, 3, 1,
8, 8, 3,
12, 5, 5,
7, 10, 3,
10, 4, 4,
10, 4, 5]);
